$ Example from Global Constraint Catalogue
$ http://www.emn.fr/x-info/sdemasse/gccat/sec2.7.108.html
$
$ 12 solutions.
language ESSENCE' 1.0
letting n be 4
letting mat be [
       [1, 0, 0, 0],
       [0, 0, 0, 3],
       [3, 0, 0, 0],
       [0, 0, 0, 1]
     ]
